numAceitesV=2;
numAceitesN=3;
numMeses=6;
maxPrecio=200;
VALOR=150;
MAXV=200;
MAXN=250;
MCAP=1000;
MaxCA=15;
CA=[11,12,13,11,11|
    13,13,11,9,11|
    11,14,13,10,9|
    10, 12, 15, 11, 10|
     9, 10, 14, 8, 13]
MinD=3;
MaxD=6;
MaxDureza;
durezas=[8.8,6.1,2.0,4.2,5.0];
toneladas=[500,600,300,450,370];
MinB=100000;
precios=[110,120,130,110,115|
          130,130,110,90,115|
          110,140,130,100,95|
          100, 120, 150, 110, 105|
           90, 100, 140, 80, 135];